c description: Random 5-CNF over 15 variables and 30 clauses
c generator: CNFgen (0.9.0)
c copyright: (C) 2012-2020 Massimo Lauria <massimo.lauria@uniroma1.it>
c url: https://massimolauria.net/cnfgen
c
p cnf 15 30
1 4 7 -10 11 0
-1 -5 6 7 9 0
7 -10 -11 -13 14 0
4 5 -6 -9 -14 0
-3 5 11 13 15 0
4 8 10 14 15 0
-7 9 -11 12 14 0
-2 -4 6 9 -11 0
4 5 6 -9 -13 0
-7 -8 -10 14 -15 0
-2 9 -10 -11 15 0
-1 -6 -8 -9 14 0
1 -4 -5 9 -12 0
-1 -2 8 -10 -11 0
-1 -3 5 -10 -13 0
-2 8 -12 -14 -15 0
-2 7 10 14 -15 0
1 -3 7 9 -11 0
1 2 8 11 -13 0
-5 -7 -8 -9 12 0
-1 -2 6 -8 12 0
3 -6 -8 -12 15 0
-1 3 -4 -5 7 0
1 -3 4 -11 15 0
2 10 -11 14 15 0
3 4 -5 11 -14 0
-3 6 10 12 13 0
3 -4 9 -10 -12 0
-1 -5 9 -10 14 0
-2 5 -10 11 -14 0